# Solution for model r3_t27_m1_1 Batch Number: 4
# Finished Task: 25 / 27
# Makespan: 918.0, Total Distance: 700.0, Total Time: 12.6053
# R O S F Batch
0 0 14 0.0 0.0 -1
1 1 8 0.0 0.0 -1
2 2 7 0.0 0.0 -1
3 2 6 227.0 265.0 0
4 1 24 372.0 403.0 0
5 2 19 399.0 435.0 0
6 2 5 303.0 334.0 0
7 2 3 184.0 214.0 0
8 1 4 296.0 333.0 0
9 2 21 545.0 577.0 1
10 2 9 521.0 545.0 1
11 0 27 595.0 624.0 1
12 1 18 687.0 713.0 1
13 0 11 532.0 564.0 0
14 0 13 455.0 494.0 0
15 2 23 701.0 739.0 2
16 1 17 792.0 828.0 2
17 1 22 847.0 882.0 3
18 1 16 735.0 773.0 2
19 2 10 469.0 503.0 1
20 2 25 805.0 834.0 3
21 2 15 624.0 656.0 1
22 1 -1 894.0 918.0 3
23 2 20 749.0 771.0 2
24 1 29 511.0 539.0 0
25 2 -1 860.0 882.0 3
26 -1 -1 -1.0 -1.0 1
27 0 -1 679.0 716.0 3
28 -1 -1 -1.0 -1.0 2
29 1 12 595.0 621.0 0
